(set-info :smt-lib-version 2.6)
(set-logic QF_LRA)
(set-info :source |
TLP-GP automated DTP to SMT-LIB encoding for planning
by F.Maris and P.Regnier, IRIT - Universite Paul Sabatier, Toulouse

|)
(set-info :category "industrial")
(set-info :status sat)
(declare-fun St_spy_variable () Real)
(declare-fun t_Init_0 () Real)
(declare-fun t_Goal_6 () Real)
(declare-fun t_TREAT_CERAMIC1_p2_3 () Real)
(declare-fun t_BAKE_CERAMIC1_p2_k2_2 () Real)
(declare-fun t_TREAT_CERAMIC1_p1_3 () Real)
(declare-fun t_BAKE_CERAMIC1_p1_k2_2 () Real)
(declare-fun t_MAKE_STRUCTURE_p1_p2_4 () Real)
(declare-fun t_BAKE_STRUCTURE_p1_p2_k1_5 () Real)
(declare-fun t_TREAT_CERAMIC1_p4_3 () Real)
(declare-fun t_BAKE_CERAMIC1_p4_k2_2 () Real)
(declare-fun t_TREAT_CERAMIC1_p3_3 () Real)
(declare-fun t_BAKE_CERAMIC1_p3_k2_2 () Real)
(declare-fun t_MAKE_STRUCTURE_p3_p4_4 () Real)
(declare-fun t_BAKE_STRUCTURE_p3_p4_k1_5 () Real)
(declare-fun t_TREAT_CERAMIC2_p6_3 () Real)
(declare-fun t_BAKE_CERAMIC2_p6_k2_2 () Real)
(declare-fun t_TREAT_CERAMIC2_p5_3 () Real)
(declare-fun t_BAKE_CERAMIC2_p5_k2_2 () Real)
(declare-fun t_MAKE_STRUCTURE_p5_p6_4 () Real)
(declare-fun t_BAKE_STRUCTURE_p5_p6_k1_5 () Real)
(declare-fun t_TREAT_CERAMIC2_p8_3 () Real)
(declare-fun t_BAKE_CERAMIC2_p8_k2_2 () Real)
(declare-fun t_TREAT_CERAMIC2_p7_3 () Real)
(declare-fun t_BAKE_CERAMIC2_p7_k2_2 () Real)
(declare-fun t_MAKE_STRUCTURE_p7_p8_4 () Real)
(declare-fun t_BAKE_STRUCTURE_p7_p8_k1_5 () Real)
(declare-fun t_TREAT_CERAMIC2_p10_3 () Real)
(declare-fun t_BAKE_CERAMIC2_p10_k2_2 () Real)
(declare-fun t_TREAT_CERAMIC2_p9_3 () Real)
(declare-fun t_BAKE_CERAMIC2_p9_k2_2 () Real)
(declare-fun t_MAKE_STRUCTURE_p9_p10_4 () Real)
(declare-fun t_BAKE_STRUCTURE_p9_p10_k1_5 () Real)
(declare-fun t_BAKE_CERAMIC3_p12_k2_2 () Real)
(declare-fun t_TREAT_CERAMIC3_p12_3 () Real)
(declare-fun t_BAKE_CERAMIC3_p12_k1_3 () Real)
(declare-fun t_BAKE_CERAMIC3_p11_k2_2 () Real)
(declare-fun t_TREAT_CERAMIC3_p11_3 () Real)
(declare-fun t_BAKE_CERAMIC3_p11_k1_3 () Real)
(declare-fun t_MAKE_STRUCTURE_p11_p12_4 () Real)
(declare-fun t_BAKE_STRUCTURE_p11_p12_k1_5 () Real)
(declare-fun t_BAKE_CERAMIC3_p14_k2_2 () Real)
(declare-fun t_TREAT_CERAMIC3_p14_3 () Real)
(declare-fun t_BAKE_CERAMIC3_p14_k1_3 () Real)
(declare-fun t_BAKE_CERAMIC3_p13_k2_2 () Real)
(declare-fun t_TREAT_CERAMIC3_p13_3 () Real)
(declare-fun t_BAKE_CERAMIC3_p13_k1_3 () Real)
(declare-fun t_MAKE_STRUCTURE_p13_p14_4 () Real)
(declare-fun t_BAKE_STRUCTURE_p13_p14_k1_5 () Real)
(declare-fun t_BAKE_CERAMIC3_p16_k2_2 () Real)
(declare-fun t_TREAT_CERAMIC3_p16_3 () Real)
(declare-fun t_BAKE_CERAMIC3_p16_k1_3 () Real)
(declare-fun t_BAKE_CERAMIC3_p15_k2_2 () Real)
(declare-fun t_TREAT_CERAMIC3_p15_3 () Real)
(declare-fun t_BAKE_CERAMIC3_p15_k1_3 () Real)
(declare-fun t_MAKE_STRUCTURE_p15_p16_4 () Real)
(declare-fun t_BAKE_STRUCTURE_p15_p16_k1_5 () Real)
(declare-fun t_BAKE_CERAMIC3_p18_k2_2 () Real)
(declare-fun t_TREAT_CERAMIC3_p18_3 () Real)
(declare-fun t_BAKE_CERAMIC3_p18_k1_3 () Real)
(declare-fun t_BAKE_CERAMIC3_p17_k2_2 () Real)
(declare-fun t_TREAT_CERAMIC3_p17_3 () Real)
(declare-fun t_BAKE_CERAMIC3_p17_k1_3 () Real)
(declare-fun t_MAKE_STRUCTURE_p17_p18_4 () Real)
(declare-fun t_BAKE_STRUCTURE_p17_p18_k1_5 () Real)
(declare-fun t_BAKE_CERAMIC3_p20_k2_2 () Real)
(declare-fun t_TREAT_CERAMIC3_p20_3 () Real)
(declare-fun t_BAKE_CERAMIC3_p20_k1_3 () Real)
(declare-fun t_BAKE_CERAMIC3_p19_k2_2 () Real)
(declare-fun t_TREAT_CERAMIC3_p19_3 () Real)
(declare-fun t_FIRE_KILN1_k1_2 () Real)
(declare-fun t_BAKE_CERAMIC3_p19_k1_3 () Real)
(declare-fun t_MAKE_STRUCTURE_p19_p20_4 () Real)
(declare-fun t_BAKE_STRUCTURE_p19_p20_k1_5 () Real)
(declare-fun t_TREAT_CERAMIC1_p22_3 () Real)
(declare-fun t_BAKE_CERAMIC1_p22_k2_2 () Real)
(declare-fun t_TREAT_CERAMIC1_p21_3 () Real)
(declare-fun t_BAKE_CERAMIC1_p21_k2_2 () Real)
(declare-fun t_MAKE_STRUCTURE_p21_p22_4 () Real)
(declare-fun t_BAKE_STRUCTURE_p21_p22_k1_5 () Real)
(declare-fun t_TREAT_CERAMIC1_p24_3 () Real)
(declare-fun t_BAKE_CERAMIC1_p24_k2_2 () Real)
(declare-fun t_TREAT_CERAMIC1_p23_3 () Real)
(declare-fun t_BAKE_CERAMIC1_p23_k2_2 () Real)
(declare-fun t_MAKE_STRUCTURE_p23_p24_4 () Real)
(declare-fun t_BAKE_STRUCTURE_p23_p24_k1_5 () Real)
(declare-fun t_TREAT_CERAMIC2_p26_3 () Real)
(declare-fun t_BAKE_CERAMIC2_p26_k2_2 () Real)
(declare-fun t_TREAT_CERAMIC2_p25_3 () Real)
(declare-fun t_BAKE_CERAMIC2_p25_k2_2 () Real)
(declare-fun t_MAKE_STRUCTURE_p25_p26_4 () Real)
(declare-fun t_BAKE_STRUCTURE_p25_p26_k1_5 () Real)
(declare-fun t_TREAT_CERAMIC2_p28_3 () Real)
(declare-fun t_BAKE_CERAMIC2_p28_k2_2 () Real)
(declare-fun t_TREAT_CERAMIC2_p27_3 () Real)
(declare-fun t_BAKE_CERAMIC2_p27_k2_2 () Real)
(declare-fun t_MAKE_STRUCTURE_p27_p28_4 () Real)
(declare-fun t_BAKE_STRUCTURE_p27_p28_k1_5 () Real)
(declare-fun t_TREAT_CERAMIC2_p30_3 () Real)
(declare-fun t_BAKE_CERAMIC2_p30_k2_2 () Real)
(declare-fun t_TREAT_CERAMIC2_p29_3 () Real)
(declare-fun t_FIRE_KILN2_k2_1 () Real)
(declare-fun t_BAKE_CERAMIC2_p29_k2_2 () Real)
(declare-fun t_MAKE_STRUCTURE_p29_p30_4 () Real)
(declare-fun t_FIRE_KILN1_k1_1 () Real)
(declare-fun t_BAKE_STRUCTURE_p29_p30_k1_5 () Real)
(assert (let ((?v_34 (- t_Goal_6 t_BAKE_STRUCTURE_p1_p2_k1_5)) (?v_54 (- t_Goal_6 t_BAKE_STRUCTURE_p3_p4_k1_5)) (?v_60 (- t_Goal_6 t_BAKE_STRUCTURE_p5_p6_k1_5)) (?v_66 (- t_Goal_6 t_BAKE_STRUCTURE_p7_p8_k1_5)) (?v_72 (- t_Goal_6 t_BAKE_STRUCTURE_p9_p10_k1_5)) (?v_89 (- t_Goal_6 t_BAKE_STRUCTURE_p11_p12_k1_5)) (?v_97 (- t_Goal_6 t_BAKE_STRUCTURE_p13_p14_k1_5)) (?v_105 (- t_Goal_6 t_BAKE_STRUCTURE_p15_p16_k1_5)) (?v_113 (- t_Goal_6 t_BAKE_STRUCTURE_p17_p18_k1_5)) (?v_121 (- t_Goal_6 t_BAKE_STRUCTURE_p19_p20_k1_5)) (?v_127 (- t_Goal_6 t_BAKE_STRUCTURE_p21_p22_k1_5)) (?v_133 (- t_Goal_6 t_BAKE_STRUCTURE_p23_p24_k1_5)) (?v_139 (- t_Goal_6 t_BAKE_STRUCTURE_p25_p26_k1_5)) (?v_145 (- t_Goal_6 t_BAKE_STRUCTURE_p27_p28_k1_5)) (?v_151 (- t_Goal_6 t_BAKE_STRUCTURE_p29_p30_k1_5)) (?v_0 (- t_TREAT_CERAMIC1_p2_3 t_BAKE_CERAMIC1_p2_k2_2)) (?v_149 (- t_BAKE_CERAMIC2_p29_k2_2 t_FIRE_KILN2_k2_1))) (let ((?v_3 (<= ?v_149 10)) (?v_147 (- t_BAKE_CERAMIC2_p30_k2_2 t_FIRE_KILN2_k2_1))) (let ((?v_4 (<= ?v_147 10)) (?v_143 (- t_BAKE_CERAMIC2_p27_k2_2 t_FIRE_KILN2_k2_1))) (let ((?v_5 (<= ?v_143 10)) (?v_141 (- t_BAKE_CERAMIC2_p28_k2_2 t_FIRE_KILN2_k2_1))) (let ((?v_6 (<= ?v_141 10)) (?v_137 (- t_BAKE_CERAMIC2_p25_k2_2 t_FIRE_KILN2_k2_1))) (let ((?v_7 (<= ?v_137 10)) (?v_135 (- t_BAKE_CERAMIC2_p26_k2_2 t_FIRE_KILN2_k2_1))) (let ((?v_8 (<= ?v_135 10)) (?v_131 (- t_BAKE_CERAMIC1_p23_k2_2 t_FIRE_KILN2_k2_1))) (let ((?v_9 (<= ?v_131 5)) (?v_129 (- t_BAKE_CERAMIC1_p24_k2_2 t_FIRE_KILN2_k2_1))) (let ((?v_10 (<= ?v_129 5)) (?v_125 (- t_BAKE_CERAMIC1_p21_k2_2 t_FIRE_KILN2_k2_1))) (let ((?v_11 (<= ?v_125 5)) (?v_123 (- t_BAKE_CERAMIC1_p22_k2_2 t_FIRE_KILN2_k2_1))) (let ((?v_12 (<= ?v_123 5)) (?v_117 (- t_BAKE_CERAMIC3_p19_k2_2 t_FIRE_KILN2_k2_1))) (let ((?v_13 (<= ?v_117 15)) (?v_114 (- t_BAKE_CERAMIC3_p20_k2_2 t_FIRE_KILN2_k2_1))) (let ((?v_14 (<= ?v_114 15)) (?v_109 (- t_BAKE_CERAMIC3_p17_k2_2 t_FIRE_KILN2_k2_1))) (let ((?v_15 (<= ?v_109 15)) (?v_106 (- t_BAKE_CERAMIC3_p18_k2_2 t_FIRE_KILN2_k2_1))) (let ((?v_16 (<= ?v_106 15)) (?v_101 (- t_BAKE_CERAMIC3_p15_k2_2 t_FIRE_KILN2_k2_1))) (let ((?v_17 (<= ?v_101 15)) (?v_98 (- t_BAKE_CERAMIC3_p16_k2_2 t_FIRE_KILN2_k2_1))) (let ((?v_18 (<= ?v_98 15)) (?v_93 (- t_BAKE_CERAMIC3_p13_k2_2 t_FIRE_KILN2_k2_1))) (let ((?v_19 (<= ?v_93 15)) (?v_90 (- t_BAKE_CERAMIC3_p14_k2_2 t_FIRE_KILN2_k2_1))) (let ((?v_20 (<= ?v_90 15)) (?v_76 (- t_BAKE_CERAMIC3_p11_k2_2 t_FIRE_KILN2_k2_1))) (let ((?v_21 (<= ?v_76 15)) (?v_73 (- t_BAKE_CERAMIC3_p12_k2_2 t_FIRE_KILN2_k2_1))) (let ((?v_22 (<= ?v_73 15)) (?v_70 (- t_BAKE_CERAMIC2_p9_k2_2 t_FIRE_KILN2_k2_1))) (let ((?v_23 (<= ?v_70 10)) (?v_68 (- t_BAKE_CERAMIC2_p10_k2_2 t_FIRE_KILN2_k2_1))) (let ((?v_24 (<= ?v_68 10)) (?v_64 (- t_BAKE_CERAMIC2_p7_k2_2 t_FIRE_KILN2_k2_1))) (let ((?v_25 (<= ?v_64 10)) (?v_62 (- t_BAKE_CERAMIC2_p8_k2_2 t_FIRE_KILN2_k2_1))) (let ((?v_26 (<= ?v_62 10)) (?v_58 (- t_BAKE_CERAMIC2_p5_k2_2 t_FIRE_KILN2_k2_1))) (let ((?v_27 (<= ?v_58 10)) (?v_56 (- t_BAKE_CERAMIC2_p6_k2_2 t_FIRE_KILN2_k2_1))) (let ((?v_28 (<= ?v_56 10)) (?v_38 (- t_BAKE_CERAMIC1_p3_k2_2 t_FIRE_KILN2_k2_1))) (let ((?v_29 (<= ?v_38 5)) (?v_36 (- t_BAKE_CERAMIC1_p4_k2_2 t_FIRE_KILN2_k2_1))) (let ((?v_30 (<= ?v_36 5)) (?v_32 (- t_BAKE_CERAMIC1_p1_k2_2 t_FIRE_KILN2_k2_1))) (let ((?v_31 (<= ?v_32 5)) (?v_1 (- t_BAKE_CERAMIC1_p2_k2_2 t_FIRE_KILN2_k2_1)) (?v_2 (- t_TREAT_CERAMIC1_p1_3 t_BAKE_CERAMIC1_p1_k2_2)) (?v_150 (- t_BAKE_STRUCTURE_p29_p30_k1_5 t_FIRE_KILN1_k1_1))) (let ((?v_39 (<= ?v_150 5)) (?v_144 (- t_BAKE_STRUCTURE_p27_p28_k1_5 t_FIRE_KILN1_k1_1))) (let ((?v_40 (<= ?v_144 5)) (?v_138 (- t_BAKE_STRUCTURE_p25_p26_k1_5 t_FIRE_KILN1_k1_1))) (let ((?v_41 (<= ?v_138 5)) (?v_132 (- t_BAKE_STRUCTURE_p23_p24_k1_5 t_FIRE_KILN1_k1_1))) (let ((?v_42 (<= ?v_132 5)) (?v_126 (- t_BAKE_STRUCTURE_p21_p22_k1_5 t_FIRE_KILN1_k1_1))) (let ((?v_43 (<= ?v_126 5)) (?v_120 (- t_BAKE_STRUCTURE_p19_p20_k1_5 t_FIRE_KILN1_k1_1))) (let ((?v_44 (<= ?v_120 5)) (?v_112 (- t_BAKE_STRUCTURE_p17_p18_k1_5 t_FIRE_KILN1_k1_1))) (let ((?v_45 (<= ?v_112 5)) (?v_104 (- t_BAKE_STRUCTURE_p15_p16_k1_5 t_FIRE_KILN1_k1_1))) (let ((?v_46 (<= ?v_104 5)) (?v_96 (- t_BAKE_STRUCTURE_p13_p14_k1_5 t_FIRE_KILN1_k1_1))) (let ((?v_47 (<= ?v_96 5)) (?v_88 (- t_BAKE_STRUCTURE_p11_p12_k1_5 t_FIRE_KILN1_k1_1))) (let ((?v_48 (<= ?v_88 5)) (?v_71 (- t_BAKE_STRUCTURE_p9_p10_k1_5 t_FIRE_KILN1_k1_1))) (let ((?v_49 (<= ?v_71 5)) (?v_65 (- t_BAKE_STRUCTURE_p7_p8_k1_5 t_FIRE_KILN1_k1_1))) (let ((?v_50 (<= ?v_65 5)) (?v_59 (- t_BAKE_STRUCTURE_p5_p6_k1_5 t_FIRE_KILN1_k1_1))) (let ((?v_51 (<= ?v_59 5)) (?v_53 (- t_BAKE_STRUCTURE_p3_p4_k1_5 t_FIRE_KILN1_k1_1))) (let ((?v_52 (<= ?v_53 5)) (?v_33 (- t_BAKE_STRUCTURE_p1_p2_k1_5 t_FIRE_KILN1_k1_1)) (?v_35 (- t_TREAT_CERAMIC1_p4_3 t_BAKE_CERAMIC1_p4_k2_2)) (?v_37 (- t_TREAT_CERAMIC1_p3_3 t_BAKE_CERAMIC1_p3_k2_2)) (?v_55 (- t_TREAT_CERAMIC2_p6_3 t_BAKE_CERAMIC2_p6_k2_2)) (?v_57 (- t_TREAT_CERAMIC2_p5_3 t_BAKE_CERAMIC2_p5_k2_2)) (?v_61 (- t_TREAT_CERAMIC2_p8_3 t_BAKE_CERAMIC2_p8_k2_2)) (?v_63 (- t_TREAT_CERAMIC2_p7_3 t_BAKE_CERAMIC2_p7_k2_2)) (?v_67 (- t_TREAT_CERAMIC2_p10_3 t_BAKE_CERAMIC2_p10_k2_2)) (?v_69 (- t_TREAT_CERAMIC2_p9_3 t_BAKE_CERAMIC2_p9_k2_2)) (?v_74 (- t_TREAT_CERAMIC3_p12_3 t_BAKE_CERAMIC3_p12_k2_2)) (?v_119 (- t_BAKE_CERAMIC3_p19_k1_3 t_FIRE_KILN1_k1_2))) (let ((?v_78 (<= ?v_119 3)) (?v_116 (- t_BAKE_CERAMIC3_p20_k1_3 t_FIRE_KILN1_k1_2))) (let ((?v_79 (<= ?v_116 3)) (?v_111 (- t_BAKE_CERAMIC3_p17_k1_3 t_FIRE_KILN1_k1_2))) (let ((?v_80 (<= ?v_111 3)) (?v_108 (- t_BAKE_CERAMIC3_p18_k1_3 t_FIRE_KILN1_k1_2))) (let ((?v_81 (<= ?v_108 3)) (?v_103 (- t_BAKE_CERAMIC3_p15_k1_3 t_FIRE_KILN1_k1_2))) (let ((?v_82 (<= ?v_103 3)) (?v_100 (- t_BAKE_CERAMIC3_p16_k1_3 t_FIRE_KILN1_k1_2))) (let ((?v_83 (<= ?v_100 3)) (?v_95 (- t_BAKE_CERAMIC3_p13_k1_3 t_FIRE_KILN1_k1_2))) (let ((?v_84 (<= ?v_95 3)) (?v_92 (- t_BAKE_CERAMIC3_p14_k1_3 t_FIRE_KILN1_k1_2))) (let ((?v_85 (<= ?v_92 3)) (?v_87 (- t_BAKE_CERAMIC3_p11_k1_3 t_FIRE_KILN1_k1_2))) (let ((?v_86 (<= ?v_87 3)) (?v_75 (- t_BAKE_CERAMIC3_p12_k1_3 t_FIRE_KILN1_k1_2)) (?v_77 (- t_TREAT_CERAMIC3_p11_3 t_BAKE_CERAMIC3_p11_k2_2)) (?v_91 (- t_TREAT_CERAMIC3_p14_3 t_BAKE_CERAMIC3_p14_k2_2)) (?v_94 (- t_TREAT_CERAMIC3_p13_3 t_BAKE_CERAMIC3_p13_k2_2)) (?v_99 (- t_TREAT_CERAMIC3_p16_3 t_BAKE_CERAMIC3_p16_k2_2)) (?v_102 (- t_TREAT_CERAMIC3_p15_3 t_BAKE_CERAMIC3_p15_k2_2)) (?v_107 (- t_TREAT_CERAMIC3_p18_3 t_BAKE_CERAMIC3_p18_k2_2)) (?v_110 (- t_TREAT_CERAMIC3_p17_3 t_BAKE_CERAMIC3_p17_k2_2)) (?v_115 (- t_TREAT_CERAMIC3_p20_3 t_BAKE_CERAMIC3_p20_k2_2)) (?v_118 (- t_TREAT_CERAMIC3_p19_3 t_BAKE_CERAMIC3_p19_k2_2)) (?v_122 (- t_TREAT_CERAMIC1_p22_3 t_BAKE_CERAMIC1_p22_k2_2)) (?v_124 (- t_TREAT_CERAMIC1_p21_3 t_BAKE_CERAMIC1_p21_k2_2)) (?v_128 (- t_TREAT_CERAMIC1_p24_3 t_BAKE_CERAMIC1_p24_k2_2)) (?v_130 (- t_TREAT_CERAMIC1_p23_3 t_BAKE_CERAMIC1_p23_k2_2)) (?v_134 (- t_TREAT_CERAMIC2_p26_3 t_BAKE_CERAMIC2_p26_k2_2)) (?v_136 (- t_TREAT_CERAMIC2_p25_3 t_BAKE_CERAMIC2_p25_k2_2)) (?v_140 (- t_TREAT_CERAMIC2_p28_3 t_BAKE_CERAMIC2_p28_k2_2)) (?v_142 (- t_TREAT_CERAMIC2_p27_3 t_BAKE_CERAMIC2_p27_k2_2)) (?v_146 (- t_TREAT_CERAMIC2_p30_3 t_BAKE_CERAMIC2_p30_k2_2)) (?v_148 (- t_TREAT_CERAMIC2_p29_3 t_BAKE_CERAMIC2_p29_k2_2)) (?v_217 (- t_BAKE_CERAMIC3_p19_k1_3 t_FIRE_KILN1_k1_1)) (?v_152 (> (- t_FIRE_KILN1_k1_2 t_FIRE_KILN1_k1_1) 8))) (let ((?v_153 (or (<= ?v_217 3) ?v_152)) (?v_213 (- t_BAKE_CERAMIC3_p20_k1_3 t_FIRE_KILN1_k1_1))) (let ((?v_154 (or (<= ?v_213 3) ?v_152)) (?v_208 (- t_BAKE_CERAMIC3_p17_k1_3 t_FIRE_KILN1_k1_1))) (let ((?v_155 (or (<= ?v_208 3) ?v_152)) (?v_204 (- t_BAKE_CERAMIC3_p18_k1_3 t_FIRE_KILN1_k1_1))) (let ((?v_156 (or (<= ?v_204 3) ?v_152)) (?v_199 (- t_BAKE_CERAMIC3_p15_k1_3 t_FIRE_KILN1_k1_1))) (let ((?v_157 (or (<= ?v_199 3) ?v_152)) (?v_195 (- t_BAKE_CERAMIC3_p16_k1_3 t_FIRE_KILN1_k1_1))) (let ((?v_158 (or (<= ?v_195 3) ?v_152)) (?v_190 (- t_BAKE_CERAMIC3_p13_k1_3 t_FIRE_KILN1_k1_1))) (let ((?v_159 (or (<= ?v_190 3) ?v_152)) (?v_186 (- t_BAKE_CERAMIC3_p14_k1_3 t_FIRE_KILN1_k1_1))) (let ((?v_160 (or (<= ?v_186 3) ?v_152)) (?v_181 (- t_BAKE_CERAMIC3_p11_k1_3 t_FIRE_KILN1_k1_1))) (let ((?v_161 (or (<= ?v_181 3) ?v_152)) (?v_167 (- t_BAKE_CERAMIC3_p12_k1_3 t_FIRE_KILN1_k1_1))) (let ((?v_162 (or (<= ?v_167 3) ?v_152)) (?v_163 (> (- t_FIRE_KILN1_k1_1 t_FIRE_KILN1_k1_2) 8)) (?v_166 (- t_BAKE_CERAMIC3_p12_k2_2 t_BAKE_CERAMIC3_p12_k1_3)) (?v_164 (- t_BAKE_CERAMIC3_p12_k1_3 t_BAKE_CERAMIC3_p12_k2_2))) (let ((?v_165 (or (< ?v_164 5) (> ?v_164 5))) (?v_171 (or (<= (- t_BAKE_STRUCTURE_p29_p30_k1_5 t_FIRE_KILN1_k1_2) 5) ?v_163)) (?v_172 (or (<= (- t_BAKE_STRUCTURE_p27_p28_k1_5 t_FIRE_KILN1_k1_2) 5) ?v_163)) (?v_173 (or (<= (- t_BAKE_STRUCTURE_p25_p26_k1_5 t_FIRE_KILN1_k1_2) 5) ?v_163)) (?v_174 (or (<= (- t_BAKE_STRUCTURE_p23_p24_k1_5 t_FIRE_KILN1_k1_2) 5) ?v_163)) (?v_175 (or (<= (- t_BAKE_STRUCTURE_p21_p22_k1_5 t_FIRE_KILN1_k1_2) 5) ?v_163)) (?v_176 (or (<= (- t_BAKE_STRUCTURE_p19_p20_k1_5 t_FIRE_KILN1_k1_2) 5) ?v_163)) (?v_209 (- t_BAKE_STRUCTURE_p17_p18_k1_5 t_FIRE_KILN1_k1_2))) (let ((?v_177 (or (<= ?v_209 5) ?v_163)) (?v_200 (- t_BAKE_STRUCTURE_p15_p16_k1_5 t_FIRE_KILN1_k1_2))) (let ((?v_178 (or (<= ?v_200 5) ?v_163)) (?v_191 (- t_BAKE_STRUCTURE_p13_p14_k1_5 t_FIRE_KILN1_k1_2))) (let ((?v_179 (or (<= ?v_191 5) ?v_163)) (?v_182 (- t_BAKE_STRUCTURE_p11_p12_k1_5 t_FIRE_KILN1_k1_2))) (let ((?v_180 (or (<= ?v_182 5) ?v_163)) (?v_170 (- t_BAKE_CERAMIC3_p11_k2_2 t_BAKE_CERAMIC3_p11_k1_3)) (?v_168 (- t_BAKE_CERAMIC3_p11_k1_3 t_BAKE_CERAMIC3_p11_k2_2))) (let ((?v_169 (or (< ?v_168 5) (> ?v_168 5))) (?v_185 (- t_BAKE_CERAMIC3_p14_k2_2 t_BAKE_CERAMIC3_p14_k1_3)) (?v_183 (- t_BAKE_CERAMIC3_p14_k1_3 t_BAKE_CERAMIC3_p14_k2_2))) (let ((?v_184 (or (< ?v_183 5) (> ?v_183 5))) (?v_189 (- t_BAKE_CERAMIC3_p13_k2_2 t_BAKE_CERAMIC3_p13_k1_3)) (?v_187 (- t_BAKE_CERAMIC3_p13_k1_3 t_BAKE_CERAMIC3_p13_k2_2))) (let ((?v_188 (or (< ?v_187 5) (> ?v_187 5))) (?v_194 (- t_BAKE_CERAMIC3_p16_k2_2 t_BAKE_CERAMIC3_p16_k1_3)) (?v_192 (- t_BAKE_CERAMIC3_p16_k1_3 t_BAKE_CERAMIC3_p16_k2_2))) (let ((?v_193 (or (< ?v_192 5) (> ?v_192 5))) (?v_198 (- t_BAKE_CERAMIC3_p15_k2_2 t_BAKE_CERAMIC3_p15_k1_3)) (?v_196 (- t_BAKE_CERAMIC3_p15_k1_3 t_BAKE_CERAMIC3_p15_k2_2))) (let ((?v_197 (or (< ?v_196 5) (> ?v_196 5))) (?v_203 (- t_BAKE_CERAMIC3_p18_k2_2 t_BAKE_CERAMIC3_p18_k1_3)) (?v_201 (- t_BAKE_CERAMIC3_p18_k1_3 t_BAKE_CERAMIC3_p18_k2_2))) (let ((?v_202 (or (< ?v_201 5) (> ?v_201 5))) (?v_207 (- t_BAKE_CERAMIC3_p17_k2_2 t_BAKE_CERAMIC3_p17_k1_3)) (?v_205 (- t_BAKE_CERAMIC3_p17_k1_3 t_BAKE_CERAMIC3_p17_k2_2))) (let ((?v_206 (or (< ?v_205 5) (> ?v_205 5))) (?v_212 (- t_BAKE_CERAMIC3_p20_k2_2 t_BAKE_CERAMIC3_p20_k1_3)) (?v_210 (- t_BAKE_CERAMIC3_p20_k1_3 t_BAKE_CERAMIC3_p20_k2_2))) (let ((?v_211 (or (< ?v_210 5) (> ?v_210 5))) (?v_216 (- t_BAKE_CERAMIC3_p19_k2_2 t_BAKE_CERAMIC3_p19_k1_3)) (?v_214 (- t_BAKE_CERAMIC3_p19_k1_3 t_BAKE_CERAMIC3_p19_k2_2))) (let ((?v_215 (or (< ?v_214 5) (> ?v_214 5)))) (and (= St_spy_variable (+ 1 t_Init_0)) (>= t_Goal_6 t_Init_0) (>= (- t_TREAT_CERAMIC1_p2_3 t_Init_0) 0) (>= (- t_Goal_6 t_TREAT_CERAMIC1_p2_3) 3) (>= (- t_BAKE_CERAMIC1_p2_k2_2 t_Init_0) 0) (>= (- t_Goal_6 t_BAKE_CERAMIC1_p2_k2_2) 15) (>= (- t_TREAT_CERAMIC1_p1_3 t_Init_0) 0) (>= (- t_Goal_6 t_TREAT_CERAMIC1_p1_3) 3) (>= (- t_BAKE_CERAMIC1_p1_k2_2 t_Init_0) 0) (>= (- t_Goal_6 t_BAKE_CERAMIC1_p1_k2_2) 15) (>= (- t_MAKE_STRUCTURE_p1_p2_4 t_Init_0) 0) (>= (- t_Goal_6 t_MAKE_STRUCTURE_p1_p2_4) 1) (>= (- t_BAKE_STRUCTURE_p1_p2_k1_5 t_Init_0) 0) (>= ?v_34 3) (>= (- t_TREAT_CERAMIC1_p4_3 t_Init_0) 0) (>= (- t_Goal_6 t_TREAT_CERAMIC1_p4_3) 3) (>= (- t_BAKE_CERAMIC1_p4_k2_2 t_Init_0) 0) (>= (- t_Goal_6 t_BAKE_CERAMIC1_p4_k2_2) 15) (>= (- t_TREAT_CERAMIC1_p3_3 t_Init_0) 0) (>= (- t_Goal_6 t_TREAT_CERAMIC1_p3_3) 3) (>= (- t_BAKE_CERAMIC1_p3_k2_2 t_Init_0) 0) (>= (- t_Goal_6 t_BAKE_CERAMIC1_p3_k2_2) 15) (>= (- t_MAKE_STRUCTURE_p3_p4_4 t_Init_0) 0) (>= (- t_Goal_6 t_MAKE_STRUCTURE_p3_p4_4) 1) (>= (- t_BAKE_STRUCTURE_p3_p4_k1_5 t_Init_0) 0) (>= ?v_54 3) (>= (- t_TREAT_CERAMIC2_p6_3 t_Init_0) 0) (>= (- t_Goal_6 t_TREAT_CERAMIC2_p6_3) 2) (>= (- t_BAKE_CERAMIC2_p6_k2_2 t_Init_0) 0) (>= (- t_Goal_6 t_BAKE_CERAMIC2_p6_k2_2) 10) (>= (- t_TREAT_CERAMIC2_p5_3 t_Init_0) 0) (>= (- t_Goal_6 t_TREAT_CERAMIC2_p5_3) 2) (>= (- t_BAKE_CERAMIC2_p5_k2_2 t_Init_0) 0) (>= (- t_Goal_6 t_BAKE_CERAMIC2_p5_k2_2) 10) (>= (- t_MAKE_STRUCTURE_p5_p6_4 t_Init_0) 0) (>= (- t_Goal_6 t_MAKE_STRUCTURE_p5_p6_4) 1) (>= (- t_BAKE_STRUCTURE_p5_p6_k1_5 t_Init_0) 0) (>= ?v_60 3) (>= (- t_TREAT_CERAMIC2_p8_3 t_Init_0) 0) (>= (- t_Goal_6 t_TREAT_CERAMIC2_p8_3) 2) (>= (- t_BAKE_CERAMIC2_p8_k2_2 t_Init_0) 0) (>= (- t_Goal_6 t_BAKE_CERAMIC2_p8_k2_2) 10) (>= (- t_TREAT_CERAMIC2_p7_3 t_Init_0) 0) (>= (- t_Goal_6 t_TREAT_CERAMIC2_p7_3) 2) (>= (- t_BAKE_CERAMIC2_p7_k2_2 t_Init_0) 0) (>= (- t_Goal_6 t_BAKE_CERAMIC2_p7_k2_2) 10) (>= (- t_MAKE_STRUCTURE_p7_p8_4 t_Init_0) 0) (>= (- t_Goal_6 t_MAKE_STRUCTURE_p7_p8_4) 1) (>= (- t_BAKE_STRUCTURE_p7_p8_k1_5 t_Init_0) 0) (>= ?v_66 3) (>= (- t_TREAT_CERAMIC2_p10_3 t_Init_0) 0) (>= (- t_Goal_6 t_TREAT_CERAMIC2_p10_3) 2) (>= (- t_BAKE_CERAMIC2_p10_k2_2 t_Init_0) 0) (>= (- t_Goal_6 t_BAKE_CERAMIC2_p10_k2_2) 10) (>= (- t_TREAT_CERAMIC2_p9_3 t_Init_0) 0) (>= (- t_Goal_6 t_TREAT_CERAMIC2_p9_3) 2) (>= (- t_BAKE_CERAMIC2_p9_k2_2 t_Init_0) 0) (>= (- t_Goal_6 t_BAKE_CERAMIC2_p9_k2_2) 10) (>= (- t_MAKE_STRUCTURE_p9_p10_4 t_Init_0) 0) (>= (- t_Goal_6 t_MAKE_STRUCTURE_p9_p10_4) 1) (>= (- t_BAKE_STRUCTURE_p9_p10_k1_5 t_Init_0) 0) (>= ?v_72 3) (>= (- t_BAKE_CERAMIC3_p12_k2_2 t_Init_0) 0) (>= (- t_Goal_6 t_BAKE_CERAMIC3_p12_k2_2) 5) (>= (- t_TREAT_CERAMIC3_p12_3 t_Init_0) 0) (>= (- t_Goal_6 t_TREAT_CERAMIC3_p12_3) 1) (>= (- t_BAKE_CERAMIC3_p12_k1_3 t_Init_0) 0) (>= (- t_Goal_6 t_BAKE_CERAMIC3_p12_k1_3) 5) (>= (- t_BAKE_CERAMIC3_p11_k2_2 t_Init_0) 0) (>= (- t_Goal_6 t_BAKE_CERAMIC3_p11_k2_2) 5) (>= (- t_TREAT_CERAMIC3_p11_3 t_Init_0) 0) (>= (- t_Goal_6 t_TREAT_CERAMIC3_p11_3) 1) (>= (- t_BAKE_CERAMIC3_p11_k1_3 t_Init_0) 0) (>= (- t_Goal_6 t_BAKE_CERAMIC3_p11_k1_3) 5) (>= (- t_MAKE_STRUCTURE_p11_p12_4 t_Init_0) 0) (>= (- t_Goal_6 t_MAKE_STRUCTURE_p11_p12_4) 1) (>= (- t_BAKE_STRUCTURE_p11_p12_k1_5 t_Init_0) 0) (>= ?v_89 3) (>= (- t_BAKE_CERAMIC3_p14_k2_2 t_Init_0) 0) (>= (- t_Goal_6 t_BAKE_CERAMIC3_p14_k2_2) 5) (>= (- t_TREAT_CERAMIC3_p14_3 t_Init_0) 0) (>= (- t_Goal_6 t_TREAT_CERAMIC3_p14_3) 1) (>= (- t_BAKE_CERAMIC3_p14_k1_3 t_Init_0) 0) (>= (- t_Goal_6 t_BAKE_CERAMIC3_p14_k1_3) 5) (>= (- t_BAKE_CERAMIC3_p13_k2_2 t_Init_0) 0) (>= (- t_Goal_6 t_BAKE_CERAMIC3_p13_k2_2) 5) (>= (- t_TREAT_CERAMIC3_p13_3 t_Init_0) 0) (>= (- t_Goal_6 t_TREAT_CERAMIC3_p13_3) 1) (>= (- t_BAKE_CERAMIC3_p13_k1_3 t_Init_0) 0) (>= (- t_Goal_6 t_BAKE_CERAMIC3_p13_k1_3) 5) (>= (- t_MAKE_STRUCTURE_p13_p14_4 t_Init_0) 0) (>= (- t_Goal_6 t_MAKE_STRUCTURE_p13_p14_4) 1) (>= (- t_BAKE_STRUCTURE_p13_p14_k1_5 t_Init_0) 0) (>= ?v_97 3) (>= (- t_BAKE_CERAMIC3_p16_k2_2 t_Init_0) 0) (>= (- t_Goal_6 t_BAKE_CERAMIC3_p16_k2_2) 5) (>= (- t_TREAT_CERAMIC3_p16_3 t_Init_0) 0) (>= (- t_Goal_6 t_TREAT_CERAMIC3_p16_3) 1) (>= (- t_BAKE_CERAMIC3_p16_k1_3 t_Init_0) 0) (>= (- t_Goal_6 t_BAKE_CERAMIC3_p16_k1_3) 5) (>= (- t_BAKE_CERAMIC3_p15_k2_2 t_Init_0) 0) (>= (- t_Goal_6 t_BAKE_CERAMIC3_p15_k2_2) 5) (>= (- t_TREAT_CERAMIC3_p15_3 t_Init_0) 0) (>= (- t_Goal_6 t_TREAT_CERAMIC3_p15_3) 1) (>= (- t_BAKE_CERAMIC3_p15_k1_3 t_Init_0) 0) (>= (- t_Goal_6 t_BAKE_CERAMIC3_p15_k1_3) 5) (>= (- t_MAKE_STRUCTURE_p15_p16_4 t_Init_0) 0) (>= (- t_Goal_6 t_MAKE_STRUCTURE_p15_p16_4) 1) (>= (- t_BAKE_STRUCTURE_p15_p16_k1_5 t_Init_0) 0) (>= ?v_105 3) (>= (- t_BAKE_CERAMIC3_p18_k2_2 t_Init_0) 0) (>= (- t_Goal_6 t_BAKE_CERAMIC3_p18_k2_2) 5) (>= (- t_TREAT_CERAMIC3_p18_3 t_Init_0) 0) (>= (- t_Goal_6 t_TREAT_CERAMIC3_p18_3) 1) (>= (- t_BAKE_CERAMIC3_p18_k1_3 t_Init_0) 0) (>= (- t_Goal_6 t_BAKE_CERAMIC3_p18_k1_3) 5) (>= (- t_BAKE_CERAMIC3_p17_k2_2 t_Init_0) 0) (>= (- t_Goal_6 t_BAKE_CERAMIC3_p17_k2_2) 5) (>= (- t_TREAT_CERAMIC3_p17_3 t_Init_0) 0) (>= (- t_Goal_6 t_TREAT_CERAMIC3_p17_3) 1) (>= (- t_BAKE_CERAMIC3_p17_k1_3 t_Init_0) 0) (>= (- t_Goal_6 t_BAKE_CERAMIC3_p17_k1_3) 5) (>= (- t_MAKE_STRUCTURE_p17_p18_4 t_Init_0) 0) (>= (- t_Goal_6 t_MAKE_STRUCTURE_p17_p18_4) 1) (>= (- t_BAKE_STRUCTURE_p17_p18_k1_5 t_Init_0) 0) (>= ?v_113 3) (>= (- t_BAKE_CERAMIC3_p20_k2_2 t_Init_0) 0) (>= (- t_Goal_6 t_BAKE_CERAMIC3_p20_k2_2) 5) (>= (- t_TREAT_CERAMIC3_p20_3 t_Init_0) 0) (>= (- t_Goal_6 t_TREAT_CERAMIC3_p20_3) 1) (>= (- t_BAKE_CERAMIC3_p20_k1_3 t_Init_0) 0) (>= (- t_Goal_6 t_BAKE_CERAMIC3_p20_k1_3) 5) (>= (- t_BAKE_CERAMIC3_p19_k2_2 t_Init_0) 0) (>= (- t_Goal_6 t_BAKE_CERAMIC3_p19_k2_2) 5) (>= (- t_TREAT_CERAMIC3_p19_3 t_Init_0) 0) (>= (- t_Goal_6 t_TREAT_CERAMIC3_p19_3) 1) (>= (- t_FIRE_KILN1_k1_2 t_Init_0) 0) (>= (- t_Goal_6 t_FIRE_KILN1_k1_2) 8) (>= (- t_BAKE_CERAMIC3_p19_k1_3 t_Init_0) 0) (>= (- t_Goal_6 t_BAKE_CERAMIC3_p19_k1_3) 5) (>= (- t_MAKE_STRUCTURE_p19_p20_4 t_Init_0) 0) (>= (- t_Goal_6 t_MAKE_STRUCTURE_p19_p20_4) 1) (>= (- t_BAKE_STRUCTURE_p19_p20_k1_5 t_Init_0) 0) (>= ?v_121 3) (>= (- t_TREAT_CERAMIC1_p22_3 t_Init_0) 0) (>= (- t_Goal_6 t_TREAT_CERAMIC1_p22_3) 3) (>= (- t_BAKE_CERAMIC1_p22_k2_2 t_Init_0) 0) (>= (- t_Goal_6 t_BAKE_CERAMIC1_p22_k2_2) 15) (>= (- t_TREAT_CERAMIC1_p21_3 t_Init_0) 0) (>= (- t_Goal_6 t_TREAT_CERAMIC1_p21_3) 3) (>= (- t_BAKE_CERAMIC1_p21_k2_2 t_Init_0) 0) (>= (- t_Goal_6 t_BAKE_CERAMIC1_p21_k2_2) 15) (>= (- t_MAKE_STRUCTURE_p21_p22_4 t_Init_0) 0) (>= (- t_Goal_6 t_MAKE_STRUCTURE_p21_p22_4) 1) (>= (- t_BAKE_STRUCTURE_p21_p22_k1_5 t_Init_0) 0) (>= ?v_127 3) (>= (- t_TREAT_CERAMIC1_p24_3 t_Init_0) 0) (>= (- t_Goal_6 t_TREAT_CERAMIC1_p24_3) 3) (>= (- t_BAKE_CERAMIC1_p24_k2_2 t_Init_0) 0) (>= (- t_Goal_6 t_BAKE_CERAMIC1_p24_k2_2) 15) (>= (- t_TREAT_CERAMIC1_p23_3 t_Init_0) 0) (>= (- t_Goal_6 t_TREAT_CERAMIC1_p23_3) 3) (>= (- t_BAKE_CERAMIC1_p23_k2_2 t_Init_0) 0) (>= (- t_Goal_6 t_BAKE_CERAMIC1_p23_k2_2) 15) (>= (- t_MAKE_STRUCTURE_p23_p24_4 t_Init_0) 0) (>= (- t_Goal_6 t_MAKE_STRUCTURE_p23_p24_4) 1) (>= (- t_BAKE_STRUCTURE_p23_p24_k1_5 t_Init_0) 0) (>= ?v_133 3) (>= (- t_TREAT_CERAMIC2_p26_3 t_Init_0) 0) (>= (- t_Goal_6 t_TREAT_CERAMIC2_p26_3) 2) (>= (- t_BAKE_CERAMIC2_p26_k2_2 t_Init_0) 0) (>= (- t_Goal_6 t_BAKE_CERAMIC2_p26_k2_2) 10) (>= (- t_TREAT_CERAMIC2_p25_3 t_Init_0) 0) (>= (- t_Goal_6 t_TREAT_CERAMIC2_p25_3) 2) (>= (- t_BAKE_CERAMIC2_p25_k2_2 t_Init_0) 0) (>= (- t_Goal_6 t_BAKE_CERAMIC2_p25_k2_2) 10) (>= (- t_MAKE_STRUCTURE_p25_p26_4 t_Init_0) 0) (>= (- t_Goal_6 t_MAKE_STRUCTURE_p25_p26_4) 1) (>= (- t_BAKE_STRUCTURE_p25_p26_k1_5 t_Init_0) 0) (>= ?v_139 3) (>= (- t_TREAT_CERAMIC2_p28_3 t_Init_0) 0) (>= (- t_Goal_6 t_TREAT_CERAMIC2_p28_3) 2) (>= (- t_BAKE_CERAMIC2_p28_k2_2 t_Init_0) 0) (>= (- t_Goal_6 t_BAKE_CERAMIC2_p28_k2_2) 10) (>= (- t_TREAT_CERAMIC2_p27_3 t_Init_0) 0) (>= (- t_Goal_6 t_TREAT_CERAMIC2_p27_3) 2) (>= (- t_BAKE_CERAMIC2_p27_k2_2 t_Init_0) 0) (>= (- t_Goal_6 t_BAKE_CERAMIC2_p27_k2_2) 10) (>= (- t_MAKE_STRUCTURE_p27_p28_4 t_Init_0) 0) (>= (- t_Goal_6 t_MAKE_STRUCTURE_p27_p28_4) 1) (>= (- t_BAKE_STRUCTURE_p27_p28_k1_5 t_Init_0) 0) (>= ?v_145 3) (>= (- t_TREAT_CERAMIC2_p30_3 t_Init_0) 0) (>= (- t_Goal_6 t_TREAT_CERAMIC2_p30_3) 2) (>= (- t_BAKE_CERAMIC2_p30_k2_2 t_Init_0) 0) (>= (- t_Goal_6 t_BAKE_CERAMIC2_p30_k2_2) 10) (>= (- t_TREAT_CERAMIC2_p29_3 t_Init_0) 0) (>= (- t_Goal_6 t_TREAT_CERAMIC2_p29_3) 2) (>= (- t_FIRE_KILN2_k2_1 t_Init_0) 0) (>= (- t_Goal_6 t_FIRE_KILN2_k2_1) 20) (>= (- t_BAKE_CERAMIC2_p29_k2_2 t_Init_0) 0) (>= (- t_Goal_6 t_BAKE_CERAMIC2_p29_k2_2) 10) (>= (- t_MAKE_STRUCTURE_p29_p30_4 t_Init_0) 0) (>= (- t_Goal_6 t_MAKE_STRUCTURE_p29_p30_4) 1) (>= (- t_FIRE_KILN1_k1_1 t_Init_0) 0) (>= (- t_Goal_6 t_FIRE_KILN1_k1_1) 8) (>= (- t_BAKE_STRUCTURE_p29_p30_k1_5 t_Init_0) 0) (>= ?v_151 3) (<= ?v_0 12) (< ?v_0 12) (>= ?v_0 0) (>= (- t_MAKE_STRUCTURE_p1_p2_4 t_TREAT_CERAMIC1_p2_3) 3) ?v_3 ?v_4 ?v_5 ?v_6 ?v_7 ?v_8 ?v_9 ?v_10 ?v_11 ?v_12 ?v_13 ?v_14 ?v_15 ?v_16 ?v_17 ?v_18 ?v_19 ?v_20 ?v_21 ?v_22 ?v_23 ?v_24 ?v_25 ?v_26 ?v_27 ?v_28 ?v_29 ?v_30 ?v_31 (<= ?v_1 5) (< ?v_1 5) (>= ?v_1 0) (>= (- t_MAKE_STRUCTURE_p1_p2_4 t_BAKE_CERAMIC1_p2_k2_2) 15) (<= ?v_2 12) (< ?v_2 12) (>= ?v_2 0) (>= (- t_MAKE_STRUCTURE_p1_p2_4 t_TREAT_CERAMIC1_p1_3) 3) ?v_3 ?v_4 ?v_5 ?v_6 ?v_7 ?v_8 ?v_9 ?v_10 ?v_11 ?v_12 ?v_13 ?v_14 ?v_15 ?v_16 ?v_17 ?v_18 ?v_19 ?v_20 ?v_21 ?v_22 ?v_23 ?v_24 ?v_25 ?v_26 ?v_27 ?v_28 ?v_29 ?v_30 ?v_31 (< ?v_32 5) (>= ?v_32 0) (>= (- t_MAKE_STRUCTURE_p1_p2_4 t_BAKE_CERAMIC1_p1_k2_2) 15) (>= (- t_BAKE_STRUCTURE_p1_p2_k1_5 t_MAKE_STRUCTURE_p1_p2_4) 1) ?v_39 ?v_40 ?v_41 ?v_42 ?v_43 ?v_44 ?v_45 ?v_46 ?v_47 ?v_48 ?v_49 ?v_50 ?v_51 ?v_52 (<= ?v_33 5) (< ?v_33 5) (>= ?v_33 0) (>= ?v_34 4) (<= ?v_35 12) (< ?v_35 12) (>= ?v_35 0) (>= (- t_MAKE_STRUCTURE_p3_p4_4 t_TREAT_CERAMIC1_p4_3) 3) ?v_3 ?v_4 ?v_5 ?v_6 ?v_7 ?v_8 ?v_9 ?v_10 ?v_11 ?v_12 ?v_13 ?v_14 ?v_15 ?v_16 ?v_17 ?v_18 ?v_19 ?v_20 ?v_21 ?v_22 ?v_23 ?v_24 ?v_25 ?v_26 ?v_27 ?v_28 ?v_29 ?v_30 (< ?v_36 5) (>= ?v_36 0) (>= (- t_MAKE_STRUCTURE_p3_p4_4 t_BAKE_CERAMIC1_p4_k2_2) 15) (<= ?v_37 12) (< ?v_37 12) (>= ?v_37 0) (>= (- t_MAKE_STRUCTURE_p3_p4_4 t_TREAT_CERAMIC1_p3_3) 3) ?v_3 ?v_4 ?v_5 ?v_6 ?v_7 ?v_8 ?v_9 ?v_10 ?v_11 ?v_12 ?v_13 ?v_14 ?v_15 ?v_16 ?v_17 ?v_18 ?v_19 ?v_20 ?v_21 ?v_22 ?v_23 ?v_24 ?v_25 ?v_26 ?v_27 ?v_28 ?v_29 (< ?v_38 5) (>= ?v_38 0) (>= (- t_MAKE_STRUCTURE_p3_p4_4 t_BAKE_CERAMIC1_p3_k2_2) 15) (>= (- t_BAKE_STRUCTURE_p3_p4_k1_5 t_MAKE_STRUCTURE_p3_p4_4) 1) ?v_39 ?v_40 ?v_41 ?v_42 ?v_43 ?v_44 ?v_45 ?v_46 ?v_47 ?v_48 ?v_49 ?v_50 ?v_51 ?v_52 (< ?v_53 5) (>= ?v_53 0) (>= ?v_54 4) (<= ?v_55 8) (< ?v_55 8) (>= ?v_55 0) (>= (- t_MAKE_STRUCTURE_p5_p6_4 t_TREAT_CERAMIC2_p6_3) 2) ?v_3 ?v_4 ?v_5 ?v_6 ?v_7 ?v_8 ?v_9 ?v_10 ?v_11 ?v_12 ?v_13 ?v_14 ?v_15 ?v_16 ?v_17 ?v_18 ?v_19 ?v_20 ?v_21 ?v_22 ?v_23 ?v_24 ?v_25 ?v_26 ?v_27 ?v_28 (< ?v_56 10) (>= ?v_56 0) (>= (- t_MAKE_STRUCTURE_p5_p6_4 t_BAKE_CERAMIC2_p6_k2_2) 10) (<= ?v_57 8) (< ?v_57 8) (>= ?v_57 0) (>= (- t_MAKE_STRUCTURE_p5_p6_4 t_TREAT_CERAMIC2_p5_3) 2) ?v_3 ?v_4 ?v_5 ?v_6 ?v_7 ?v_8 ?v_9 ?v_10 ?v_11 ?v_12 ?v_13 ?v_14 ?v_15 ?v_16 ?v_17 ?v_18 ?v_19 ?v_20 ?v_21 ?v_22 ?v_23 ?v_24 ?v_25 ?v_26 ?v_27 (< ?v_58 10) (>= ?v_58 0) (>= (- t_MAKE_STRUCTURE_p5_p6_4 t_BAKE_CERAMIC2_p5_k2_2) 10) (>= (- t_BAKE_STRUCTURE_p5_p6_k1_5 t_MAKE_STRUCTURE_p5_p6_4) 1) ?v_39 ?v_40 ?v_41 ?v_42 ?v_43 ?v_44 ?v_45 ?v_46 ?v_47 ?v_48 ?v_49 ?v_50 ?v_51 (< ?v_59 5) (>= ?v_59 0) (>= ?v_60 4) (<= ?v_61 8) (< ?v_61 8) (>= ?v_61 0) (>= (- t_MAKE_STRUCTURE_p7_p8_4 t_TREAT_CERAMIC2_p8_3) 2) ?v_3 ?v_4 ?v_5 ?v_6 ?v_7 ?v_8 ?v_9 ?v_10 ?v_11 ?v_12 ?v_13 ?v_14 ?v_15 ?v_16 ?v_17 ?v_18 ?v_19 ?v_20 ?v_21 ?v_22 ?v_23 ?v_24 ?v_25 ?v_26 (< ?v_62 10) (>= ?v_62 0) (>= (- t_MAKE_STRUCTURE_p7_p8_4 t_BAKE_CERAMIC2_p8_k2_2) 10) (<= ?v_63 8) (< ?v_63 8) (>= ?v_63 0) (>= (- t_MAKE_STRUCTURE_p7_p8_4 t_TREAT_CERAMIC2_p7_3) 2) ?v_3 ?v_4 ?v_5 ?v_6 ?v_7 ?v_8 ?v_9 ?v_10 ?v_11 ?v_12 ?v_13 ?v_14 ?v_15 ?v_16 ?v_17 ?v_18 ?v_19 ?v_20 ?v_21 ?v_22 ?v_23 ?v_24 ?v_25 (< ?v_64 10) (>= ?v_64 0) (>= (- t_MAKE_STRUCTURE_p7_p8_4 t_BAKE_CERAMIC2_p7_k2_2) 10) (>= (- t_BAKE_STRUCTURE_p7_p8_k1_5 t_MAKE_STRUCTURE_p7_p8_4) 1) ?v_39 ?v_40 ?v_41 ?v_42 ?v_43 ?v_44 ?v_45 ?v_46 ?v_47 ?v_48 ?v_49 ?v_50 (< ?v_65 5) (>= ?v_65 0) (>= ?v_66 4) (<= ?v_67 8) (< ?v_67 8) (>= ?v_67 0) (>= (- t_MAKE_STRUCTURE_p9_p10_4 t_TREAT_CERAMIC2_p10_3) 2) ?v_3 ?v_4 ?v_5 ?v_6 ?v_7 ?v_8 ?v_9 ?v_10 ?v_11 ?v_12 ?v_13 ?v_14 ?v_15 ?v_16 ?v_17 ?v_18 ?v_19 ?v_20 ?v_21 ?v_22 ?v_23 ?v_24 (< ?v_68 10) (>= ?v_68 0) (>= (- t_MAKE_STRUCTURE_p9_p10_4 t_BAKE_CERAMIC2_p10_k2_2) 10) (<= ?v_69 8) (< ?v_69 8) (>= ?v_69 0) (>= (- t_MAKE_STRUCTURE_p9_p10_4 t_TREAT_CERAMIC2_p9_3) 2) ?v_3 ?v_4 ?v_5 ?v_6 ?v_7 ?v_8 ?v_9 ?v_10 ?v_11 ?v_12 ?v_13 ?v_14 ?v_15 ?v_16 ?v_17 ?v_18 ?v_19 ?v_20 ?v_21 ?v_22 ?v_23 (< ?v_70 10) (>= ?v_70 0) (>= (- t_MAKE_STRUCTURE_p9_p10_4 t_BAKE_CERAMIC2_p9_k2_2) 10) (>= (- t_BAKE_STRUCTURE_p9_p10_k1_5 t_MAKE_STRUCTURE_p9_p10_4) 1) ?v_39 ?v_40 ?v_41 ?v_42 ?v_43 ?v_44 ?v_45 ?v_46 ?v_47 ?v_48 ?v_49 (< ?v_71 5) (>= ?v_71 0) (>= ?v_72 4) ?v_3 ?v_4 ?v_5 ?v_6 ?v_7 ?v_8 ?v_9 ?v_10 ?v_11 ?v_12 ?v_13 ?v_14 ?v_15 ?v_16 ?v_17 ?v_18 ?v_19 ?v_20 ?v_21 ?v_22 (< ?v_73 15) (>= ?v_73 0) (<= ?v_74 4) (>= ?v_74 0) (>= (- t_MAKE_STRUCTURE_p11_p12_4 t_TREAT_CERAMIC3_p12_3) 1) ?v_78 ?v_79 ?v_80 ?v_81 ?v_82 ?v_83 ?v_84 ?v_85 ?v_86 (<= ?v_75 3) (< ?v_75 3) (>= ?v_75 0) (>= (- t_MAKE_STRUCTURE_p11_p12_4 t_BAKE_CERAMIC3_p12_k1_3) 5) ?v_3 ?v_4 ?v_5 ?v_6 ?v_7 ?v_8 ?v_9 ?v_10 ?v_11 ?v_12 ?v_13 ?v_14 ?v_15 ?v_16 ?v_17 ?v_18 ?v_19 ?v_20 ?v_21 (< ?v_76 15) (>= ?v_76 0) (<= ?v_77 4) (>= ?v_77 0) (>= (- t_MAKE_STRUCTURE_p11_p12_4 t_TREAT_CERAMIC3_p11_3) 1) ?v_78 ?v_79 ?v_80 ?v_81 ?v_82 ?v_83 ?v_84 ?v_85 ?v_86 (< ?v_87 3) (>= ?v_87 0) (>= (- t_MAKE_STRUCTURE_p11_p12_4 t_BAKE_CERAMIC3_p11_k1_3) 5) (>= (- t_BAKE_STRUCTURE_p11_p12_k1_5 t_MAKE_STRUCTURE_p11_p12_4) 1) ?v_39 ?v_40 ?v_41 ?v_42 ?v_43 ?v_44 ?v_45 ?v_46 ?v_47 ?v_48 (< ?v_88 5) (>= ?v_88 0) (>= ?v_89 4) ?v_3 ?v_4 ?v_5 ?v_6 ?v_7 ?v_8 ?v_9 ?v_10 ?v_11 ?v_12 ?v_13 ?v_14 ?v_15 ?v_16 ?v_17 ?v_18 ?v_19 ?v_20 (< ?v_90 15) (>= ?v_90 0) (<= ?v_91 4) (>= ?v_91 0) (>= (- t_MAKE_STRUCTURE_p13_p14_4 t_TREAT_CERAMIC3_p14_3) 1) ?v_78 ?v_79 ?v_80 ?v_81 ?v_82 ?v_83 ?v_84 ?v_85 (< ?v_92 3) (>= ?v_92 0) (>= (- t_MAKE_STRUCTURE_p13_p14_4 t_BAKE_CERAMIC3_p14_k1_3) 5) ?v_3 ?v_4 ?v_5 ?v_6 ?v_7 ?v_8 ?v_9 ?v_10 ?v_11 ?v_12 ?v_13 ?v_14 ?v_15 ?v_16 ?v_17 ?v_18 ?v_19 (< ?v_93 15) (>= ?v_93 0) (<= ?v_94 4) (>= ?v_94 0) (>= (- t_MAKE_STRUCTURE_p13_p14_4 t_TREAT_CERAMIC3_p13_3) 1) ?v_78 ?v_79 ?v_80 ?v_81 ?v_82 ?v_83 ?v_84 (< ?v_95 3) (>= ?v_95 0) (>= (- t_MAKE_STRUCTURE_p13_p14_4 t_BAKE_CERAMIC3_p13_k1_3) 5) (>= (- t_BAKE_STRUCTURE_p13_p14_k1_5 t_MAKE_STRUCTURE_p13_p14_4) 1) ?v_39 ?v_40 ?v_41 ?v_42 ?v_43 ?v_44 ?v_45 ?v_46 ?v_47 (< ?v_96 5) (>= ?v_96 0) (>= ?v_97 4) ?v_3 ?v_4 ?v_5 ?v_6 ?v_7 ?v_8 ?v_9 ?v_10 ?v_11 ?v_12 ?v_13 ?v_14 ?v_15 ?v_16 ?v_17 ?v_18 (< ?v_98 15) (>= ?v_98 0) (<= ?v_99 4) (>= ?v_99 0) (>= (- t_MAKE_STRUCTURE_p15_p16_4 t_TREAT_CERAMIC3_p16_3) 1) ?v_78 ?v_79 ?v_80 ?v_81 ?v_82 ?v_83 (< ?v_100 3) (>= ?v_100 0) (>= (- t_MAKE_STRUCTURE_p15_p16_4 t_BAKE_CERAMIC3_p16_k1_3) 5) ?v_3 ?v_4 ?v_5 ?v_6 ?v_7 ?v_8 ?v_9 ?v_10 ?v_11 ?v_12 ?v_13 ?v_14 ?v_15 ?v_16 ?v_17 (< ?v_101 15) (>= ?v_101 0) (<= ?v_102 4) (>= ?v_102 0) (>= (- t_MAKE_STRUCTURE_p15_p16_4 t_TREAT_CERAMIC3_p15_3) 1) ?v_78 ?v_79 ?v_80 ?v_81 ?v_82 (< ?v_103 3) (>= ?v_103 0) (>= (- t_MAKE_STRUCTURE_p15_p16_4 t_BAKE_CERAMIC3_p15_k1_3) 5) (>= (- t_BAKE_STRUCTURE_p15_p16_k1_5 t_MAKE_STRUCTURE_p15_p16_4) 1) ?v_39 ?v_40 ?v_41 ?v_42 ?v_43 ?v_44 ?v_45 ?v_46 (< ?v_104 5) (>= ?v_104 0) (>= ?v_105 4) ?v_3 ?v_4 ?v_5 ?v_6 ?v_7 ?v_8 ?v_9 ?v_10 ?v_11 ?v_12 ?v_13 ?v_14 ?v_15 ?v_16 (< ?v_106 15) (>= ?v_106 0) (<= ?v_107 4) (>= ?v_107 0) (>= (- t_MAKE_STRUCTURE_p17_p18_4 t_TREAT_CERAMIC3_p18_3) 1) ?v_78 ?v_79 ?v_80 ?v_81 (< ?v_108 3) (>= ?v_108 0) (>= (- t_MAKE_STRUCTURE_p17_p18_4 t_BAKE_CERAMIC3_p18_k1_3) 5) ?v_3 ?v_4 ?v_5 ?v_6 ?v_7 ?v_8 ?v_9 ?v_10 ?v_11 ?v_12 ?v_13 ?v_14 ?v_15 (< ?v_109 15) (>= ?v_109 0) (<= ?v_110 4) (>= ?v_110 0) (>= (- t_MAKE_STRUCTURE_p17_p18_4 t_TREAT_CERAMIC3_p17_3) 1) ?v_78 ?v_79 ?v_80 (< ?v_111 3) (>= ?v_111 0) (>= (- t_MAKE_STRUCTURE_p17_p18_4 t_BAKE_CERAMIC3_p17_k1_3) 5) (>= (- t_BAKE_STRUCTURE_p17_p18_k1_5 t_MAKE_STRUCTURE_p17_p18_4) 1) ?v_39 ?v_40 ?v_41 ?v_42 ?v_43 ?v_44 ?v_45 (< ?v_112 5) (>= ?v_112 0) (>= ?v_113 4) ?v_3 ?v_4 ?v_5 ?v_6 ?v_7 ?v_8 ?v_9 ?v_10 ?v_11 ?v_12 ?v_13 ?v_14 (< ?v_114 15) (>= ?v_114 0) (<= ?v_115 4) (>= ?v_115 0) (>= (- t_MAKE_STRUCTURE_p19_p20_4 t_TREAT_CERAMIC3_p20_3) 1) ?v_78 ?v_79 (< ?v_116 3) (>= ?v_116 0) (>= (- t_MAKE_STRUCTURE_p19_p20_4 t_BAKE_CERAMIC3_p20_k1_3) 5) ?v_3 ?v_4 ?v_5 ?v_6 ?v_7 ?v_8 ?v_9 ?v_10 ?v_11 ?v_12 ?v_13 (< ?v_117 15) (>= ?v_117 0) (<= ?v_118 4) (>= ?v_118 0) (>= (- t_MAKE_STRUCTURE_p19_p20_4 t_TREAT_CERAMIC3_p19_3) 1) ?v_78 (>= ?v_119 0) (>= (- t_MAKE_STRUCTURE_p19_p20_4 t_BAKE_CERAMIC3_p19_k1_3) 5) (>= (- t_BAKE_STRUCTURE_p19_p20_k1_5 t_MAKE_STRUCTURE_p19_p20_4) 1) ?v_39 ?v_40 ?v_41 ?v_42 ?v_43 ?v_44 (< ?v_120 5) (>= ?v_120 0) (>= ?v_121 4) (<= ?v_122 12) (< ?v_122 12) (>= ?v_122 0) (>= (- t_MAKE_STRUCTURE_p21_p22_4 t_TREAT_CERAMIC1_p22_3) 3) ?v_3 ?v_4 ?v_5 ?v_6 ?v_7 ?v_8 ?v_9 ?v_10 ?v_11 ?v_12 (< ?v_123 5) (>= ?v_123 0) (>= (- t_MAKE_STRUCTURE_p21_p22_4 t_BAKE_CERAMIC1_p22_k2_2) 15) (<= ?v_124 12) (< ?v_124 12) (>= ?v_124 0) (>= (- t_MAKE_STRUCTURE_p21_p22_4 t_TREAT_CERAMIC1_p21_3) 3) ?v_3 ?v_4 ?v_5 ?v_6 ?v_7 ?v_8 ?v_9 ?v_10 ?v_11 (< ?v_125 5) (>= ?v_125 0) (>= (- t_MAKE_STRUCTURE_p21_p22_4 t_BAKE_CERAMIC1_p21_k2_2) 15) (>= (- t_BAKE_STRUCTURE_p21_p22_k1_5 t_MAKE_STRUCTURE_p21_p22_4) 1) ?v_39 ?v_40 ?v_41 ?v_42 ?v_43 (< ?v_126 5) (>= ?v_126 0) (>= ?v_127 4) (<= ?v_128 12) (< ?v_128 12) (>= ?v_128 0) (>= (- t_MAKE_STRUCTURE_p23_p24_4 t_TREAT_CERAMIC1_p24_3) 3) ?v_3 ?v_4 ?v_5 ?v_6 ?v_7 ?v_8 ?v_9 ?v_10 (< ?v_129 5) (>= ?v_129 0) (>= (- t_MAKE_STRUCTURE_p23_p24_4 t_BAKE_CERAMIC1_p24_k2_2) 15) (<= ?v_130 12) (< ?v_130 12) (>= ?v_130 0) (>= (- t_MAKE_STRUCTURE_p23_p24_4 t_TREAT_CERAMIC1_p23_3) 3) ?v_3 ?v_4 ?v_5 ?v_6 ?v_7 ?v_8 ?v_9 (< ?v_131 5) (>= ?v_131 0) (>= (- t_MAKE_STRUCTURE_p23_p24_4 t_BAKE_CERAMIC1_p23_k2_2) 15) (>= (- t_BAKE_STRUCTURE_p23_p24_k1_5 t_MAKE_STRUCTURE_p23_p24_4) 1) ?v_39 ?v_40 ?v_41 ?v_42 (< ?v_132 5) (>= ?v_132 0) (>= ?v_133 4) (<= ?v_134 8) (< ?v_134 8) (>= ?v_134 0) (>= (- t_MAKE_STRUCTURE_p25_p26_4 t_TREAT_CERAMIC2_p26_3) 2) ?v_3 ?v_4 ?v_5 ?v_6 ?v_7 ?v_8 (< ?v_135 10) (>= ?v_135 0) (>= (- t_MAKE_STRUCTURE_p25_p26_4 t_BAKE_CERAMIC2_p26_k2_2) 10) (<= ?v_136 8) (< ?v_136 8) (>= ?v_136 0) (>= (- t_MAKE_STRUCTURE_p25_p26_4 t_TREAT_CERAMIC2_p25_3) 2) ?v_3 ?v_4 ?v_5 ?v_6 ?v_7 (< ?v_137 10) (>= ?v_137 0) (>= (- t_MAKE_STRUCTURE_p25_p26_4 t_BAKE_CERAMIC2_p25_k2_2) 10) (>= (- t_BAKE_STRUCTURE_p25_p26_k1_5 t_MAKE_STRUCTURE_p25_p26_4) 1) ?v_39 ?v_40 ?v_41 (< ?v_138 5) (>= ?v_138 0) (>= ?v_139 4) (<= ?v_140 8) (< ?v_140 8) (>= ?v_140 0) (>= (- t_MAKE_STRUCTURE_p27_p28_4 t_TREAT_CERAMIC2_p28_3) 2) ?v_3 ?v_4 ?v_5 ?v_6 (< ?v_141 10) (>= ?v_141 0) (>= (- t_MAKE_STRUCTURE_p27_p28_4 t_BAKE_CERAMIC2_p28_k2_2) 10) (<= ?v_142 8) (< ?v_142 8) (>= ?v_142 0) (>= (- t_MAKE_STRUCTURE_p27_p28_4 t_TREAT_CERAMIC2_p27_3) 2) ?v_3 ?v_4 ?v_5 (< ?v_143 10) (>= ?v_143 0) (>= (- t_MAKE_STRUCTURE_p27_p28_4 t_BAKE_CERAMIC2_p27_k2_2) 10) (>= (- t_BAKE_STRUCTURE_p27_p28_k1_5 t_MAKE_STRUCTURE_p27_p28_4) 1) ?v_39 ?v_40 (< ?v_144 5) (>= ?v_144 0) (>= ?v_145 4) (<= ?v_146 8) (< ?v_146 8) (>= ?v_146 0) (>= (- t_MAKE_STRUCTURE_p29_p30_4 t_TREAT_CERAMIC2_p30_3) 2) ?v_3 ?v_4 (< ?v_147 10) (>= ?v_147 0) (>= (- t_MAKE_STRUCTURE_p29_p30_4 t_BAKE_CERAMIC2_p30_k2_2) 10) (<= ?v_148 8) (< ?v_148 8) (>= ?v_148 0) (>= (- t_MAKE_STRUCTURE_p29_p30_4 t_TREAT_CERAMIC2_p29_3) 2) ?v_3 (>= ?v_149 0) (>= (- t_MAKE_STRUCTURE_p29_p30_4 t_BAKE_CERAMIC2_p29_k2_2) 10) (>= (- t_BAKE_STRUCTURE_p29_p30_k1_5 t_MAKE_STRUCTURE_p29_p30_4) 1) ?v_39 (>= ?v_150 0) (>= ?v_151 4) ?v_153 ?v_154 ?v_155 ?v_156 ?v_157 ?v_158 ?v_159 ?v_160 ?v_161 ?v_162 (or ?v_163 (< (- t_BAKE_STRUCTURE_p1_p2_k1_5 t_FIRE_KILN1_k1_2) 5)) ?v_153 ?v_154 ?v_155 ?v_156 ?v_157 ?v_158 ?v_159 ?v_160 ?v_161 ?v_162 (or ?v_163 (< (- t_BAKE_STRUCTURE_p3_p4_k1_5 t_FIRE_KILN1_k1_2) 5)) ?v_153 ?v_154 ?v_155 ?v_156 ?v_157 ?v_158 ?v_159 ?v_160 ?v_161 ?v_162 (or ?v_163 (< (- t_BAKE_STRUCTURE_p5_p6_k1_5 t_FIRE_KILN1_k1_2) 5)) ?v_153 ?v_154 ?v_155 ?v_156 ?v_157 ?v_158 ?v_159 ?v_160 ?v_161 ?v_162 (or ?v_163 (< (- t_BAKE_STRUCTURE_p7_p8_k1_5 t_FIRE_KILN1_k1_2) 5)) ?v_153 ?v_154 ?v_155 ?v_156 ?v_157 ?v_158 ?v_159 ?v_160 ?v_161 ?v_162 (or ?v_163 (< (- t_BAKE_STRUCTURE_p9_p10_k1_5 t_FIRE_KILN1_k1_2) 5)) (or (>= (- t_BAKE_CERAMIC3_p12_k2_2 t_MAKE_STRUCTURE_p11_p12_4) 1) (< ?v_166 5)) ?v_165 ?v_165 (or (> ?v_166 5) (< (- t_TREAT_CERAMIC3_p12_3 t_BAKE_CERAMIC3_p12_k1_3) 4)) ?v_171 ?v_172 ?v_173 ?v_174 ?v_175 ?v_176 ?v_177 ?v_178 ?v_179 ?v_180 (or ?v_152 (< ?v_167 3)) (or (>= (- t_BAKE_CERAMIC3_p11_k2_2 t_MAKE_STRUCTURE_p11_p12_4) 1) (< ?v_170 5)) ?v_169 ?v_169 (or (> ?v_170 5) (< (- t_TREAT_CERAMIC3_p11_3 t_BAKE_CERAMIC3_p11_k1_3) 4)) ?v_171 ?v_172 ?v_173 ?v_174 ?v_175 ?v_176 ?v_177 ?v_178 ?v_179 ?v_180 (or ?v_152 (< ?v_181 3)) ?v_153 ?v_154 ?v_155 ?v_156 ?v_157 ?v_158 ?v_159 ?v_160 (or ?v_163 (< ?v_182 5)) (or (>= (- t_BAKE_CERAMIC3_p14_k2_2 t_MAKE_STRUCTURE_p13_p14_4) 1) (< ?v_185 5)) ?v_184 ?v_184 (or (> ?v_185 5) (< (- t_TREAT_CERAMIC3_p14_3 t_BAKE_CERAMIC3_p14_k1_3) 4)) ?v_171 ?v_172 ?v_173 ?v_174 ?v_175 ?v_176 ?v_177 ?v_178 ?v_179 (or ?v_152 (< ?v_186 3)) (or (>= (- t_BAKE_CERAMIC3_p13_k2_2 t_MAKE_STRUCTURE_p13_p14_4) 1) (< ?v_189 5)) ?v_188 ?v_188 (or (> ?v_189 5) (< (- t_TREAT_CERAMIC3_p13_3 t_BAKE_CERAMIC3_p13_k1_3) 4)) ?v_171 ?v_172 ?v_173 ?v_174 ?v_175 ?v_176 ?v_177 ?v_178 ?v_179 (or ?v_152 (< ?v_190 3)) ?v_153 ?v_154 ?v_155 ?v_156 ?v_157 ?v_158 (or ?v_163 (< ?v_191 5)) (or (>= (- t_BAKE_CERAMIC3_p16_k2_2 t_MAKE_STRUCTURE_p15_p16_4) 1) (< ?v_194 5)) ?v_193 ?v_193 (or (> ?v_194 5) (< (- t_TREAT_CERAMIC3_p16_3 t_BAKE_CERAMIC3_p16_k1_3) 4)) ?v_171 ?v_172 ?v_173 ?v_174 ?v_175 ?v_176 ?v_177 ?v_178 (or ?v_152 (< ?v_195 3)) (or (>= (- t_BAKE_CERAMIC3_p15_k2_2 t_MAKE_STRUCTURE_p15_p16_4) 1) (< ?v_198 5)) ?v_197 ?v_197 (or (> ?v_198 5) (< (- t_TREAT_CERAMIC3_p15_3 t_BAKE_CERAMIC3_p15_k1_3) 4)) ?v_171 ?v_172 ?v_173 ?v_174 ?v_175 ?v_176 ?v_177 ?v_178 (or ?v_152 (< ?v_199 3)) ?v_153 ?v_154 ?v_155 ?v_156 (or ?v_163 (< ?v_200 5)) (or (>= (- t_BAKE_CERAMIC3_p18_k2_2 t_MAKE_STRUCTURE_p17_p18_4) 1) (< ?v_203 5)) ?v_202 ?v_202 (or (> ?v_203 5) (< (- t_TREAT_CERAMIC3_p18_3 t_BAKE_CERAMIC3_p18_k1_3) 4)) ?v_171 ?v_172 ?v_173 ?v_174 ?v_175 ?v_176 ?v_177 (or ?v_152 (< ?v_204 3)) (or (>= (- t_BAKE_CERAMIC3_p17_k2_2 t_MAKE_STRUCTURE_p17_p18_4) 1) (< ?v_207 5)) ?v_206 ?v_206 (or (> ?v_207 5) (< (- t_TREAT_CERAMIC3_p17_3 t_BAKE_CERAMIC3_p17_k1_3) 4)) ?v_171 ?v_172 ?v_173 ?v_174 ?v_175 ?v_176 ?v_177 (or ?v_152 (< ?v_208 3)) ?v_153 ?v_154 (or ?v_163 (< ?v_209 5)) (or (>= (- t_BAKE_CERAMIC3_p20_k2_2 t_MAKE_STRUCTURE_p19_p20_4) 1) (< ?v_212 5)) ?v_211 ?v_211 (or (> ?v_212 5) (< (- t_TREAT_CERAMIC3_p20_3 t_BAKE_CERAMIC3_p20_k1_3) 4)) ?v_171 ?v_172 ?v_173 ?v_174 ?v_175 ?v_176 (or ?v_152 (< ?v_213 3)) (or (>= (- t_BAKE_CERAMIC3_p19_k2_2 t_MAKE_STRUCTURE_p19_p20_4) 1) (< ?v_216 5)) ?v_215 ?v_215 (or (> ?v_216 5) (< (- t_TREAT_CERAMIC3_p19_3 t_BAKE_CERAMIC3_p19_k1_3) 4)) ?v_171 ?v_172 ?v_173 ?v_174 ?v_175 ?v_176 (or ?v_152 (< ?v_217 3)))))))))))))))))))))))))))))))))))))))))))))))))))))))))))))))))))))))))))))))))
(check-sat)
(exit)
